datasets/2-dimensional/CL_03_25_01.vbp
2
1000 1000 
25
330 250 30
630 710 72
234 641 4
275 376 88
287 448 54
602 391 64
555 537 90
279 221 26
706 775 94
571 733 28
606 629 72
545 595 49
321 365 54
668 472 19
718 449 28
406 631 61
465 349 84
627 339 23
226 332 67
597 262 53
271 263 54
382 668 16
464 210 9
249 223 54
272 439 77
