datasets/2-dimensional/CL_03_25_01.txt
1000 1000 
0 30 330 250 
1 72 630 710 
2 4 234 641 
3 88 275 376 
4 54 287 448 
5 64 602 391 
6 90 555 537 
7 26 279 221 
8 94 706 775 
9 28 571 733 
10 72 606 629 
11 49 545 595 
12 54 321 365 
13 19 668 472 
14 28 718 449 
15 61 406 631 
16 84 465 349 
17 23 627 339 
18 67 226 332 
19 53 597 262 
20 54 271 263 
21 16 382 668 
22 9 464 210 
23 54 249 223 
24 77 272 439 
